(assert (forall ((pkt_0_8_a_0  Int  )(pkt_1_9_b_0  Int  )(pkt_2_a_c_0  Int  )(pkt_3_b_d_0  Int  )(pkt_4_c_e_0  Int  )(state_group_0_state_0_d_f_0  Int  )(state_group_0_state_1_e_10_0  Int  )) (let ((_n0 state_group_0_state_1_e_10_0 ))
(let ((_n1 pkt_4_c_e_0 ))
(let ((_n2 (=   _n1   _n0 ) ))
(let ((_n3 state_group_0_state_0_d_f_0 ))
(let ((_n4 pkt_3_b_d_0 ))
(let ((_n5 (<   _n4   _n3 ) ))
(let ((_n6 (not  _n5 ) ))
(let ((_n7 (and   _n6   _n2 ) ))
(let ((_n8 (or   _n5   _n7 ) ))
(let ((_n9 (ite  _n8   _n4   _n3  ) ))
(let ((_n10 true ))
(let ((_n11 (-  _n4 )))
(let ((_n12 (+   _n3   _n11 ) ))
(let ((_n13 (<   _n12   (ite  _n10  1 0) ) ))
(let ((_n14 2 ))
(let ((_n15 false ))
(let ((_n16 (ite  _n13   (ite  _n15  1 0)   _n4  ) ))
(let ((_n17 (-  _n16 )))
(let ((_n18 (=   _n17   _n14 ) ))
(let ((_n19 (not  _n18 ) ))
(let ((_n20 (not  _n13 ) ))
(let ((_n21 (and   _n20   _n19 ) ))
(let ((_n22 (not  _n21 ) ))
(let ((_n23 (or   _n22   _n13 ) ))
(let ((_n24 (ite  _n23   (ite  _n15  1 0)   _n4  ) ))
(let ((_n25 (-  _n24 )))
(let ((_n26 (ite  _n23   (ite  _n15  1 0)   _n1  ) ))
(let ((_n27 (+   _n26   _n25 ) ))
(let ((_n28 (=   _n27   (ite  _n15  1 0) ) ))
(let ((_n29 (not  _n28 ) ))
(let ((_n30 (not  _n23 ) ))
(let ((_n31 (and   _n30   _n29 ) ))
(let ((_n32 (or   _n31   _n23 ) ))
(let ((_n33 (ite  _n32   (ite  _n15  1 0)   _n4  ) ))
(let ((_n34 (ite  _n32   _n3   (ite  _n15  1 0)  ) ))
(let ((_n35 (+   _n34   _n33 ) ))
(let ((_n36 (not  _n31 ) ))
(let ((_n37 (or   _n36   _n23 ) ))
(let ((_n38 (ite  _n37   (ite  _n15  1 0)   _n4  ) ))
(let ((_n39 (ite  _n37   _n3   (ite  _n15  1 0)  ) ))
(let ((_n40 (+   _n39   _n38 ) ))
(let ((_n41 (ite (=  (ite  _n31  1 0)  1)  _n40   _n35  ) ))
(let ((_n42 (ite (=  (ite  _n21  1 0)  1)  _n41   _n3  ) ))
(let ((_n43 (ite  _n13   _n1   (ite  _n15  1 0)  ) ))
(let ((_n44 (-  _n43 )))
(let ((_n45 (ite  _n13   _n0   (ite  _n15  1 0)  ) ))
(let ((_n46 (+   _n45   _n44 ) ))
(let ((_n47 (=   _n46   (ite  _n15  1 0) ) ))
(let ((_n48 (not  _n47 ) ))
(let ((_n49 (and   _n13   _n48 ) ))
(let ((_n50 (or   _n49   _n20 ) ))
(let ((_n51 (ite  _n50   (ite  _n15  1 0)   _n4  ) ))
(let ((_n52 (ite  _n50   _n3   (ite  _n15  1 0)  ) ))
(let ((_n53 (+   _n52   _n51 ) ))
(let ((_n54 (ite (=  (ite  _n49  1 0)  1)  _n3   _n53  ) ))
(let ((_n55 (ite (=  (ite  _n13  1 0)  1)  _n54   _n42  ) ))
(let ((_n56 (=   _n55   _n9 ) ))
(let ((_n58 (ite  _n5   _n1   _n0  ) ))
(let ((_n59 (ite  _n32   _n0   (ite  _n15  1 0)  ) ))
(let ((_n60 (+   _n59   _n33 ) ))
(let ((_n61 (ite  _n37   (ite  _n15  1 0)   _n1  ) ))
(let ((_n62 (ite  _n37   _n0   (ite  _n15  1 0)  ) ))
(let ((_n63 (+   _n62   _n61 ) ))
(let ((_n64 (ite (=  (ite  _n31  1 0)  1)  _n63   _n60  ) ))
(let ((_n65 (ite (=  (ite  _n21  1 0)  1)  _n64   _n0  ) ))
(let ((_n66 (ite (=  (ite  _n13  1 0)  1)  _n0   _n65  ) ))
(let ((_n67 (=   _n66   _n58 ) ))
(let ((_n69 pkt_0_8_a_0 ))
(let ((_n70 (ite (=  _n69  0)  _n69   (ite  _n15  1 0)  ) ))
(let ((_n71 (ite (=  _n69  0)  _n70   _n69  ) ))
(let ((_n72 (=   _n71   _n69 ) ))
(let ((_n74 (<   _n69   (ite  _n15  1 0) ) ))
(let ((_n75 (ite  _n74   (ite  _n15  1 0)   _n69  ) ))
(let ((_n76 (=   _n69   _n75 ) ))
(let ((_n78 pkt_1_9_b_0 ))
(let ((_n79 (ite (=  _n78  0)  _n4   (ite  _n15  1 0)  ) ))
(let ((_n80 (ite (=  _n78  0)  _n79   _n4  ) ))
(let ((_n81 (=   _n80   _n4 ) ))
(let ((_n83 (ite (=  _n1  0)  (ite  _n15  1 0)   _n1  ) ))
(let ((_n84 (=   _n83   _n1 ) ))
(let ((_n86 pkt_2_a_c_0 ))
(implies  (and (and (>= state_group_0_state_1_e_10_0 0) (< state_group_0_state_1_e_10_0 1024 ))  (and (and (>= state_group_0_state_0_d_f_0 0) (< state_group_0_state_0_d_f_0 1024 ))  (and (and (>= pkt_4_c_e_0 0) (< pkt_4_c_e_0 1024 ))  (and (and (>= pkt_3_b_d_0 0) (< pkt_3_b_d_0 1024 ))  (and (and (>= pkt_2_a_c_0 0) (< pkt_2_a_c_0 1024 ))  (and (and (>= pkt_1_9_b_0 0) (< pkt_1_9_b_0 1024 ))  (and (>= pkt_0_8_a_0 0) (< pkt_0_8_a_0 1024 )) ) ) ) ) ) )   (and  _n56  _n67  _n72  _n76  _n81  _n84 )  ))))))))))))))))))))))))))))))))))))))))))))))))))))))))))))))))))))))))))))))))))))
(check-sat)
(get-model)
(exit)